NAME: ACTUAL_TOURS/amz2514
TYPE: TOUR
COMMENT: RouteID_1fb5ba9f-14ca-4ce3-be1e-dfbe32677eca
DIMENSION: 136
TOUR_SECTION
5
55
87
115
56
21
46
62
132
1
128
134
98
117
96
66
61
92
23
79
124
37
105
34
101
89
7
69
59
67
24
63
68
9
129
18
107
103
42
77
121
51
83
126
22
106
104
6
25
84
3
13
130
11
88
93
17
136
116
97
52
102
54
28
14
64
125
70
120
85
99
82
75
2
30
71
10
50
31
20
19
74
127
48
112
95
39
119
49
47
90
118
114
26
81
109
110
133
8
122
72
44
108
43
16
111
12
4
80
40
38
73
135
27
100
131
94
86
29
78
36
57
91
32
33
45
60
123
15
76
41
65
53
58
113
35
-1
EOF
